# Solution for model GasLib-40
# Objective value = 3.9824584295678207e+01
loadshed[innode_1] 0
loadshed[innode_2] 0
loadshed[innode_3] 0
loadshed[innode_4] 0
loadshed[innode_5] 0
loadshed[innode_6] 0
loadshed[innode_7] 0
loadshed[innode_8] 0
loadshed[source_1] -1.4107809814693151e-01
loadshed[source_2] 1.6321716580509804e-01
loadshed[source_3] 2.2977132718365190e-01
loadshed[sink_1] 0
loadshed[sink_2] 0
loadshed[sink_3] 0
loadshed[sink_4] 0
loadshed[sink_5] 0
loadshed[sink_6] 0
loadshed[sink_7] 0
loadshed[sink_8] 0
loadshed[sink_9] 0
loadshed[sink_10] 0
loadshed[sink_11] 0
loadshed[sink_12] 1
loadshed[sink_13] 0
loadshed[sink_14] 0
loadshed[sink_15] 0
loadshed[sink_16] 0
loadshed[sink_17] 0
loadshed[sink_18] 0
loadshed[sink_19] 0
loadshed[sink_20] 0
loadshed[sink_21] 1
loadshed[sink_22] 0
loadshed[sink_23] 0
loadshed[sink_24] 4.3513381680580082e-01
loadshed[sink_25] 0
loadshed[sink_26] 0
loadshed[sink_27] 0
loadshed[sink_28] 0
loadshed[sink_29] 0
flow[source_1,sink_3] 1.8039335350218676e+02
flow[innode_1,sink_16] 1.6354166666666970e+01
flow[innode_6,sink_13] -7.2864981712785521e+00
flow[sink_13,sink_14] -2.3640664837945220e+01
flow[sink_14,sink_10] -3.9994831504611888e+01
flow[sink_25,sink_26] 1.3567013099946175e+02
flow[sink_26,sink_9] 3.2708333333334551e+01
flow[sink_9,sink_18] 1.6354166666667879e+01
flow[sink_26,sink_4] 8.6607630999460525e+01
flow[sink_4,sink_20] -5.3463618038196614e+01
flow[sink_18,sink_6] 0
flow[sink_25,innode_8] -1.4768502016885040e+02
flow[sink_6,sink_7] -4.9062500000000313e+01
flow[sink_6,sink_22] 3.2708333333333641e+01
flow[sink_7,sink_24] 9.2379157043218019e+00
flow[sink_22,sink_1] 1.6354166666666970e+01
flow[sink_24,sink_21] 0
flow[sink_21,sink_12] 0
flow[sink_7,sink_5] -7.4654582370988777e+01
flow[sink_5,sink_17] -9.1008749037655448e+01
flow[sink_17,sink_4] -1.2371708237099045e+02
flow[sink_17,sink_8] 1.6354166666668334e+01
flow[sink_3,sink_23] 16.3541666666697
flow[sink_8,sink_20] 0
flow[sink_25,sink_20] 6.9817784704863328e+01
flow[sink_25,sink_15] -6.6870564030862923e+01
flow[sink_15,sink_29] -83.2247306975296
flow[sink_29,sink_28] 1.6354166666667879e+01
flow[sink_29,sink_2] 1.6354166666684250e+01
flow[sink_2,sink_15] 0
flow[sink_29,innode_7] -1.3228723069754821e+02
flow[innode_4,sink_19] 4.7308181520686233e+01
flow[sink_19,innode_3] 4.3459601863458751e+01
flow[innode_4,innode_5] 7.4457483317259346e+01
flow[sink_27,innode_5] -7.4457483317259346e+01
flow[sink_27,sink_19] 5.8103316650592681e+01
flow[sink_10,sink_11] 3.2708333333333641e+01
flow[sink_10,innode_2] -4.5597729641153443e+01
flow[sink_10,innode_3] -4.3459601863458751e+01
flow[innode_6,sink_25] 7.2864981712785521e+00
flow[sink_11,innode_1] 1.6354166666666970e+01
flow[sink_19,innode_2] 4.5597729641153443e+01
flow[source_3,innode_4] 1.2176566483794558e+02
flow[source_2,innode_7] 1.3228723069754821e+02
flow[sink_3,innode_8] 1.4768502016885040e+02
pressure[innode_1] 7.6534945380733674e+01
pressure[innode_2] 7.9096675024663455e+01
pressure[innode_3] 7.9000438657602871e+01
pressure[innode_4] 81.01325
pressure[innode_5] 8.0962034216819134e+01
pressure[innode_6] 7.4712471086553563e+01
pressure[innode_7] 81.01325
pressure[innode_8] 8.0410263932001044e+01
pressure[source_1] 81.01325
pressure[source_2] 81.01325
pressure[source_3] 81.01325
pressure[sink_1] 8.8153863656756588e+00
pressure[sink_2] 7.7060815315007787e+01
pressure[sink_3] 8.0410263932001044e+01
pressure[sink_4] 5.4145785079084114e+01
pressure[sink_5] 4.2638232162160918e+01
pressure[sink_6] 1.0916463976063032e+01
pressure[sink_7] 1.1589975153763163e+01
pressure[sink_8] 4.8800640939920235e+01
pressure[sink_9] 6.3199625267026420e+01
pressure[sink_10] 7.6686646688337220e+01
pressure[sink_11] 7.6534945380733674e+01
pressure[sink_12] 1.01325
pressure[sink_13] 7.4752640333284859e+01
pressure[sink_14] 7.4794947316751745e+01
pressure[sink_15] 7.5036858482240930e+01
pressure[sink_16] 75.513295545916
pressure[sink_17] 4.9417726135333858e+01
pressure[sink_18] 6.2607882773226720e+01
pressure[sink_19] 7.9096675024663455e+01
pressure[sink_20] 58.0681246906226
pressure[sink_21] 1.01325
pressure[sink_22] 9.8791555080306690e+00
pressure[sink_23] 8.0245545920341257e+01
pressure[sink_24] 1.01325
pressure[sink_25] 7.4712471086553563e+01
pressure[sink_26] 6.5157303434911029e+01
pressure[sink_27] 8.0344174687921608e+01
pressure[sink_28] 7.7179802539854265e+01
pressure[sink_29] 7.7475084813471440e+01
interdiction[source_1,sink_3] 0
interdiction[innode_1,sink_16] 0
interdiction[innode_6,sink_13] 0
interdiction[sink_13,sink_14] 0
interdiction[sink_14,sink_10] 0
interdiction[sink_25,sink_26] 0
interdiction[sink_26,sink_9] 0
interdiction[sink_9,sink_18] 0
interdiction[sink_26,sink_4] 0
interdiction[sink_4,sink_20] 0
interdiction[sink_18,sink_6] 1
interdiction[sink_25,innode_8] 0
interdiction[sink_6,sink_7] 0
interdiction[sink_6,sink_22] 0
interdiction[sink_7,sink_24] 0
interdiction[sink_22,sink_1] 0
interdiction[sink_24,sink_21] 0
interdiction[sink_21,sink_12] 0
interdiction[sink_7,sink_5] 0
interdiction[sink_5,sink_17] 0
interdiction[sink_17,sink_4] 0
interdiction[sink_17,sink_8] 0
interdiction[sink_3,sink_23] 0
interdiction[sink_8,sink_20] 1
interdiction[sink_25,sink_20] 0
interdiction[sink_25,sink_15] 0
interdiction[sink_15,sink_29] 0
interdiction[sink_29,sink_28] 0
interdiction[sink_29,sink_2] 0
interdiction[sink_2,sink_15] 1
interdiction[sink_29,innode_7] 0
interdiction[innode_4,sink_19] 0
interdiction[sink_19,innode_3] 0
interdiction[innode_4,innode_5] 0
interdiction[sink_27,innode_5] 0
interdiction[sink_27,sink_19] 0
interdiction[sink_10,sink_11] 0
interdiction[sink_10,innode_2] 0
interdiction[sink_10,innode_3] 0
interdiction[innode_6,sink_25] 0
interdiction[sink_11,innode_1] 0
interdiction[sink_19,innode_2] 0
interdiction[source_3,innode_4] 0
interdiction[source_2,innode_7] 0
interdiction[sink_3,innode_8] 0
WCcheckFlow[source_1,sink_3] 39
WCcheckFlow[innode_1,sink_16] 1
WCcheckFlow[innode_6,sink_13] 13
WCcheckFlow[sink_13,sink_14] 12
WCcheckFlow[sink_14,sink_10] 11
WCcheckFlow[sink_25,sink_26] 15
WCcheckFlow[sink_26,sink_9] 2
WCcheckFlow[sink_9,sink_18] 1
WCcheckFlow[sink_26,sink_4] 12
WCcheckFlow[sink_4,sink_20] 1
WCcheckFlow[sink_18,sink_6] 0
WCcheckFlow[sink_25,innode_8] -36
WCcheckFlow[sink_6,sink_7] -3
WCcheckFlow[sink_6,sink_22] 2
WCcheckFlow[sink_7,sink_24] 3
WCcheckFlow[sink_22,sink_1] 1
WCcheckFlow[sink_24,sink_21] 2
WCcheckFlow[sink_21,sink_12] 1
WCcheckFlow[sink_7,sink_5] -7
WCcheckFlow[sink_5,sink_17] -8
WCcheckFlow[sink_17,sink_4] -10
WCcheckFlow[sink_17,sink_8] 1
WCcheckFlow[sink_3,sink_23] 1
WCcheckFlow[sink_8,sink_20] 0
WCcheckFlow[sink_25,sink_20] 0
WCcheckFlow[sink_25,sink_15] 6
WCcheckFlow[sink_15,sink_29] 5
WCcheckFlow[sink_29,sink_28] 1
WCcheckFlow[sink_29,sink_2] 1
WCcheckFlow[sink_2,sink_15] 0
WCcheckFlow[sink_29,innode_7] 2
WCcheckFlow[innode_4,sink_19] -4
WCcheckFlow[sink_19,innode_3] -5
WCcheckFlow[innode_4,innode_5] 2
WCcheckFlow[sink_27,innode_5] -1
WCcheckFlow[sink_27,sink_19] 0
WCcheckFlow[sink_10,sink_11] 3
WCcheckFlow[sink_10,innode_2] 1
WCcheckFlow[sink_10,innode_3] 6
WCcheckFlow[innode_6,sink_25] -14
WCcheckFlow[sink_11,innode_1] 2
WCcheckFlow[sink_19,innode_2] 0
WCcheckFlow[source_3,innode_4] -1
WCcheckFlow[source_2,innode_7] -1
WCcheckFlow[sink_3,innode_8] 37
